#######################################
### Exact MIP solver for the HHCRSP ###
#######################################
-- Instance file: new-instances/HHCRSP_200_40_11_0.8_C_RC.txt
-- Max threads: 4
-- Time limit: 999999 seconds
-- Use initial solution: No
Trivial flow violations prevented generating 357064 variables.
Version identifier: 20.1.0.0 | 2020-11-10 | 9bedb6d68
CPXPARAM_Threads                                 4
CPXPARAM_TimeLimit                               999999
Parallel mode: deterministic, using up to 4 threads for concurrent optimization:
 * Starting dual Simplex on 1 thread...
 * Starting Barrier on 3 threads...
Tried aggregator 1 time.
LP Presolve eliminated 20922 rows and 4823 columns.
Reduced LP has 377300 rows, 359068 columns, and 6453523 nonzeros.
Presolve time = 13.00 sec. (1493.79 ticks)
Symmetry aggregator did 549265 additional substitutions.

Iteration log . . .
Iteration:     1   Dual objective     =             0.000000

Dual crossover.
  Dual:  Fixing 818 variables.
      817 DMoves:  Infeasibility  3.31457093e-13  Objective  2.66666667e+02
        0 DMoves:  Infeasibility  1.72676697e-13  Objective  2.66666667e+02
  Dual:  Pushed 34, exchanged 784.
  Primal:  Fixing 508 variables.
      507 PMoves:  Infeasibility  5.55111512e-17  Objective  2.66666667e+02
        0 PMoves:  Infeasibility  6.10622664e-16  Objective  2.66666667e+02
  Primal:  Pushed 407, exchanged 101.

Dual simplex solved model.


Solution status from MIP model:
-- Processing time: 24.593 sec.
-- Memory used: 388.872 MB
-- Best bound: inf
-- Obj value: 266.667
-- Gap: inf%
-- Total distance: 800
-- Total tardiness: 0
-- Largest tardiness: 0
